# SCIP version 3.0.2.1

detectors/hrcgpartition/maxcallround = 0
detectors/hcgpartition/maxcallround = 0
detectors/hrgpartition/maxcallround = 0
detectors/stairheur/maxcallround = 0
detectors/isomorph/maxcallround = 0
detectors/hrcgpartition/mincallround = 1
detectors/hcgpartition/mincallround = 1
detectors/hrgpartition/mincallround = 1
detectors/stairheur/mincallround = 1
detectors/isomorph/mincallround = 1
limits/time = 10